data/MCDM/NO_CORR/GEN_FROM_60/10_ITEMS_1000_GEN/K5011W11.KNP.mps
NAME          BLANK   
ROWS
 N  OBJROW
 L  R0000000
COLUMNS
    C0000000  OBJROW     -543.         R0000000  230.        
    C0000001  OBJROW     -796.         R0000000  957.        
    C0000002  OBJROW     -4.           R0000000  51.         
    C0000003  OBJROW     -18.          R0000000  864.        
    C0000004  OBJROW     -317.         R0000000  485.        
    C0000005  OBJROW     -810.         R0000000  469.        
    C0000006  OBJROW     -889.         R0000000  238.        
    C0000007  OBJROW     -976.         R0000000  173.        
    C0000008  OBJROW     -594.         R0000000  958.        
    C0000009  OBJROW     -952.         R0000000  901.        
    C0000010  OBJROW     -2.           R0000000  656.        
RHS
    RHS       R0000000  15060.      
BOUNDS
 BV BOUND     C0000000  1.          
 BV BOUND     C0000001  1.          
 BV BOUND     C0000002  1.          
 BV BOUND     C0000003  1.          
 BV BOUND     C0000004  1.          
 BV BOUND     C0000005  1.          
 BV BOUND     C0000006  1.          
 BV BOUND     C0000007  1.          
 BV BOUND     C0000008  1.          
 BV BOUND     C0000009  1.          
 BV BOUND     C0000010  1.          
ENDATA
