data/MCDM/NO_CORR/GEN_FROM_60/10_ITEMS_1000_GEN/K5011W11.KNP.txt
N 11
M 12
LC 11
LC 12
LC 13
LC 14
LC 15
LC 16
LC 17
LC 18
LC 19
LC 20
LC 21
LR 1
LR 2
LR 3
LR 4
LR 5
LR 6
LR 7
LR 8
LR 9
LR 10
LR 11
LR 12
LO -543
LO -796
LO -4
LO -18
LO -317
LO -810
LO -889
LO -976
LO -594
LO -952
LO -2
OS 1
IC 709
IC 477
IC 917
IC 432
IC 201
IC 850
IC 767
IC 163
IC 895
IC 579
IC 738
IB 3364
